============================[ Problem Statistics ]=============================
|                                                                             |
|  Number of variables:      29277589                                         |
|  Number of clauses:        72984706                                         |
|  Parse time:                  15.49 s                                       |
|  Eliminated clauses:         761.29 Mb                                      |
|  Simplification time:         93.39 s                                       |
|                                                                             |
============================[ Search Statistics ]==============================
| Conflicts |          ORIGINAL         |          LEARNT          | Progress |
|           |    Vars  Clauses Literals |    Limit  Clauses Lit/Cl |          |
===============================================================================
|       100 | 3147852 15058041 47836081 |  5521281      100      5 | 15.307 % |
|       250 | 3147852 15058041 47836081 |  6073409      250      5 | 15.307 % |
|       475 | 3147852 15058041 47836081 |  6680750      475      6 | 15.307 % |
|       812 | 3147852 15058041 47836081 |  7348825      812      9 | 15.307 % |
|      1318 | 3147852 15058041 47836081 |  8083708     1318     10 | 15.307 % |
|      2077 | 3147852 15058041 47836081 |  8892079     2077      9 | 15.307 % |
|      3216 | 3147852 15058041 47836081 |  9781287     3216     13 | 15.307 % |
|      4924 | 3147852 15058041 47836081 | 10759416     4924     11 | 15.307 % |
|      7486 | 3147852 15058041 47836081 | 11835357     7486     10 | 15.307 % |
|     11330 | 3147852 15058041 47836081 | 13018893    11330     10 | 15.307 % |
|     17096 | 3147852 15058041 47836081 | 14320782    17096     10 | 15.307 % |
|     25745 | 3147852 15058041 47836081 | 15752861    25745      9 | 15.307 % |
|     38719 | 3147852 15058041 47836081 | 17328147    38719     10 | 15.307 % |
|     58180 | 3147852 15058041 47836081 | 19060961    58180     11 | 15.307 % |
|     87372 | 3147852 15058041 47836081 | 20967058    87372     12 | 15.307 % |
===============================================================================
restarts              : 255
conflicts             : 96350          (82 /sec)
decisions             : 353079557      (0.00 % random) (299602 /sec)
propagations          : 6191950905     (5254114 /sec)
conflict literals     : 1190048        (5.36 % deleted)
Memory used           : 5190.43 MB
CPU time              : 1178.5 s

SATISFIABLE
File /Users/damy17/Documents/hw-uni/master-1-uvt/verificare-formala/benchmark/input-files/benchmarkfile23.cnf completed successfully.
